
Gurobi 9.1.2 (linux64) logging started Wed Oct 13 03:00:09 2021

Changed value of parameter LogFile to /home/zongzan/dist_dnn_training/MixedMemoryOpt/data/budget_sweep/p32xlarge_VGG16_256_None/ilp_log/ilp_mixed_24893139648.log
   Prev:   Default: 
Changed value of parameter Threads to 32
   Prev: 0  Min: 0  Max: 1024  Default: 0
Changed value of parameter TimeLimit to 3600.0
   Prev: inf  Min: 0.0  Max: inf  Default: inf
Changed value of parameter OptimalityTol to 0.0001
   Prev: 1e-06  Min: 1e-09  Max: 0.01  Default: 1e-06
Parameter IntFeasTol unchanged
   Value: 1e-05  Min: 1e-09  Max: 0.1  Default: 1e-05
Changed value of parameter Presolve to 2
   Prev: -1  Min: -1  Max: 2  Default: -1
Changed value of parameter StartNodeLimit to 10000000
   Prev: -1  Min: -3  Max: 2000000000  Default: -1
Changed value of parameter TimeLimit to 300.0
   Prev: 3600.0  Min: 0.0  Max: inf  Default: inf
Gurobi Optimizer version 9.1.2 build v9.1.2rc0 (linux64)
Thread count: 28 physical cores, 56 logical processors, using up to 32 threads
Optimize a model with 61102 rows, 14040 columns and 576953 nonzeros
Model fingerprint: 0x8b7601b4
Variable types: 2025 continuous, 12015 integer (12015 binary)
Coefficient statistics:
  Matrix range     [1e+00, 5e+07]
  Objective range  [4e+00, 2e+02]
  Bounds range     [1e+00, 4e+08]
  RHS range        [1e+00, 4e+08]
Presolve removed 54196 rows and 9141 columns
Presolve time: 2.13s
Presolved: 6906 rows, 4899 columns, 38060 nonzeros
Variable types: 0 continuous, 4899 integer (3909 binary)
Found heuristic solution: objective 17973.906830
Found heuristic solution: objective 9808.2401561
Found heuristic solution: objective 3707.9683374
Presolve removed 72 rows and 58 columns
Presolved: 6834 rows, 4841 columns, 37727 nonzeros


Root relaxation: objective 3.098464e+03, 2572 iterations, 0.21 seconds

    Nodes    |    Current Node    |     Objective Bounds      |     Work
 Expl Unexpl |  Obj  Depth IntInf | Incumbent    BestBd   Gap | It/Node Time

     0     0 3098.46444    0   18 3707.96834 3098.46444  16.4%     -    2s
     0     0 3098.46444    0  221 3707.96834 3098.46444  16.4%     -    2s
H    0     0                    3292.9425228 3098.46444  5.91%     -    2s
H    0     0                    3279.1536968 3098.46444  5.51%     -    2s
H    0     0                    3098.4644417 3098.46444  0.00%     -    2s
     0     0 3098.46444    0  183 3098.46444 3098.46444  0.00%     -    2s

Cutting planes:
  Gomory: 6
  Cover: 9
  Clique: 9
  MIR: 2
  Zero half: 4
  RLT: 2

Explored 1 nodes (6426 simplex iterations) in 2.97 seconds
Thread count was 32 (of 56 available processors)

Solution count 6: 3098.46 3279.15 3292.94 ... 17973.9

Optimal solution found (tolerance 1.00e-04)
Best objective 3.098464441684e+03, best bound 3.098464441684e+03, gap 0.0000%
Changed value of parameter TimeLimit to 3600.0
   Prev: 300.0  Min: 0.0  Max: inf  Default: inf


Restarting solve


Gurobi Optimizer version 9.1.2 build v9.1.2rc0 (linux64)
Thread count: 28 physical cores, 56 logical processors, using up to 32 threads
Optimize a model with 59836 rows, 14040 columns and 575687 nonzeros
Model fingerprint: 0xde56fde3
Variable types: 2025 continuous, 12015 integer (12015 binary)
Coefficient statistics:
  Matrix range     [1e+00, 5e+07]
  Objective range  [4e+00, 2e+02]
  Bounds range     [1e+00, 4e+08]
  RHS range        [1e+00, 4e+08]

MIP start from previous solve produced solution with objective 3098.46 (0.12s)
Loaded MIP start from previous solve with objective 3098.46

Presolve removed 58590 rows and 12558 columns
Presolve time: 2.81s
Presolved: 1246 rows, 1482 columns, 15572 nonzeros
Variable types: 0 continuous, 1482 integer (1481 binary)

Explored 0 nodes (0 simplex iterations) in 2.94 seconds
Thread count was 32 (of 56 available processors)

Solution count 1: 3098.46 

Optimal solution found (tolerance 1.00e-04)
Best objective 3.098464441684e+03, best bound 3.098464441684e+03, gap 0.0000%
